50
0 1 0.58 0.25
0 2 0.64 0.2
0 3 0.76 0.21
0 4 0.6 0.3
0 5 0.67 0.19
0 6 0.5 0.12
0 7 0.62 0.18
0 8 0.29 0.26
0 9 0.4 0.2
0 10 0.79 0.17
0 11 0.58 0.23
0 12 0.52 0.22
0 13 0.72 0.24
0 14 0.56 0.2
0 15 0.72 0.11
0 16 0.42 0.23
0 17 0.51 0.28
0 18 0.4 0.26
0 19 0.73 0.21
0 20 0.56 0.14
0 21 0.48 0.12
0 22 0.56 0.13
0 23 0.44 0.17
0 24 0.42 0.19
0 25 0.74 0.04
0 26 0.44 0.26
0 27 0.69 0.18
0 28 0.57 0.2
0 29 0.27 0.11
0 30 0.76 0.16
0 31 0.5 0.18
0 32 0.63 0.21
0 33 0.76 0.29
0 34 0.34 0.16
0 35 0.6 0.16
0 36 0.52 0.29
0 37 0.69 0.21
0 38 0.64 0.06
0 39 0.67 0.15
0 40 0.55 0.25
0 41 0.66 0.22
0 42 0.27 0.23
0 43 0.5 0.23
0 44 0.73 0.27
0 45 0.6 0.19
0 46 0.74 0.21
0 47 0.52 0.11
0 48 0.48 0.24
0 49 0.68 0.15
1 2 0.62 0.32
1 3 0.74 0.17
1 4 0.49 0.35
1 5 0.68 0.28
1 6 0.6 0.32
1 7 0.38 0.21
1 8 0.56 0.22
1 9 0.4 0.34
1 10 0.41 0.24
1 11 0.66 0.33
1 12 0.62 0.27
1 13 0.48 0.28
1 14 0.75 0.22
1 15 0.56 0.27
1 16 0.61 0.25
1 17 0.75 0.42
1 18 0.74 0.25
1 19 0.34 0.24
1 20 0.68 0.23
1 21 0.68 0.35
1 22 0.44 0.34
1 23 0.64 0.33
1 24 0.58 0.34
1 25 0.62 0.29
1 26 0.64 0.31
1 27 0.38 0.26
1 28 0.54 0.26
1 29 0.54 0.27
1 30 0.54 0.31
1 31 0.6 0.21
1 32 0.4 0.22
1 33 0.68 0.32
1 34 0.42 0.3
1 35 0.64 0.23
1 36 0.62 0.29
1 37 0.72 0.37
1 38 0.54 0.31
1 39 0.32 0.14
1 40 0.16 0.13
1 41 0.54 0.34
1 42 0.44 0.24
1 43 0.57 0.2
1 44 0.66 0.25
1 45 0.66 0.35
1 46 0.59 0.24
1 47 0.43 0.14
1 48 0.54 0.17
1 49 0.44 0.24
2 3 0.85 0.19
2 4 0.64 0.45
2 5 0.62 0.25
2 6 0.64 0.32
2 7 0.56 0.13
2 8 0.74 0.26
2 9 0.48 0.2
2 10 0.7 0.28
2 11 0.84 0.33
2 12 0.28 0.22
2 13 0.72 0.28
2 14 0.55 0.19
2 15 0.76 0.09
2 16 0.64 0.27
2 17 0.46 0.24
2 18 0.72 0.26
2 19 0.49 0.27
2 20 0.36 0.2
2 21 0.51 0.18
2 22 0.64 0.3
2 23 0.7 0.15
2 24 0.76 0.24
2 25 0.54 0.19
2 26 0.54 0.26
2 27 0.72 0.31
2 28 0.3 0.17
2 29 0.62 0.16
2 30 0.58 0.36
2 31 0.76 0.35
2 32 0.78 0.3
2 33 0.4 0.31
2 34 0.56 0.29
2 35 0.62 0.25
2 36 0.64 0.31
2 37 0.43 0.19
2 38 0.72 0.26
2 39 0.58 0.18
2 40 0.46 0.23
2 41 0.6 0.32
2 42 0.5 0.28
2 43 0.62 0.32
2 44 0.44 0.18
2 45 0.77 0.17
2 46 0.55 0.3
2 47 0.52 0.2
2 48 0.47 0.27
2 49 0.74 0.32
3 4 0.73 0.26
3 5 0.83 0.26
3 6 0.58 0.27
3 7 0.69 0.27
3 8 0.54 0.27
3 9 0.75 0.34
3 10 0.81 0.17
3 11 0.48 0.16
3 12 0.62 0.1
3 13 0.86 0.22
3 14 0.9 0.2
3 15 0.39 0.1
3 16 0.58 0.28
3 17 0.72 0.31
3 18 0.51 0.3
3 19 0.52 0.18
3 20 0.54 0.18
3 21 0.69 0.32
3 22 0.5 0.28
3 23 0.38 0.16
3 24 0.73 0.25
3 25 0.72 0.2
3 26 0.78 0.14
3 27 0.74 0.21
3 28 0.72 0.25
3 29 0.84 0.22
3 30 0.49 0.32
3 31 0.67 0.22
3 32 0.51 0.13
3 33 0.8 0.32
3 34 0.68 0.2
3 35 0.82 0.2
3 36 0.38 0.12
3 37 0.42 0.2
3 38 0.59 0.27
3 39 0.73 0.24
3 40 0.62 0.04
3 41 0.62 0.26
3 42 0.49 0.25
3 43 0.68 0.15
3 44 0.72 0.16
3 45 0.79 0.18
3 46 0.5 0.24
3 47 0.83 0.2
3 48 0.56 0.08
3 49 0.77 0.3
4 5 0.66 0.28
4 6 0.64 0.18
4 7 0.53 0.37
4 8 0.46 0.31
4 9 0.78 0.4
4 10 0.76 0.22
4 11 0.53 0.13
4 12 0.74 0.36
4 13 0.53 0.27
4 14 0.44 0.29
4 15 0.72 0.36
4 16 0.55 0.34
4 17 0.48 0.42
4 18 0.5 0.37
4 19 0.58 0.22
4 20 0.7 0.35
4 21 0.4 0.35
4 22 0.59 0.37
4 23 0.35 0.35
4 24 0.52 0.38
4 25 0.66 0.32
4 26 0.6 0.32
4 27 0.5 0.24
4 28 0.53 0.37
4 29 0.72 0.37
4 30 0.62 0.36
4 31 0.66 0.29
4 32 0.47 0.26
4 33 0.7 0.38
4 34 0.26 0.22
4 35 0.6 0.25
4 36 0.68 0.36
4 37 0.74 0.39
4 38 0.52 0.32
4 39 0.44 0.28
4 40 0.6 0.22
4 41 0.64 0.28
4 42 0.55 0.26
4 43 0.3 0.28
4 44 0.53 0.33
4 45 0.46 0.32
4 46 0.36 0.3
4 47 0.67 0.32
4 48 0.72 0.18
4 49 0.34 0.29
5 6 0.58 0.15
5 7 0.6 0.27
5 8 0.38 0.31
5 9 0.36 0.32
5 10 0.6 0.28
5 11 0.68 0.34
5 12 0.7 0.23
5 13 0.8 0.14
5 14 0.88 0.32
5 15 0.76 0.22
5 16 0.72 0.33
5 17 0.7 0.32
5 18 0.62 0.27
5 19 0.7 0.22
5 20 0.78 0.21
5 21 0.42 0.07
5 22 0.5 0.21
5 23 0.6 0.28
5 24 0.52 0.25
5 25 0.76 0.23
5 26 0.56 0.19
5 27 0.66 0.21
5 28 0.78 0.3
5 29 0.54 0.17
5 30 0.6 0.23
5 31 0.76 0.28
5 32 0.42 0.29
5 33 0.75 0.38
5 34 0.6 0.06
5 35 0.58 0.25
5 36 0.61 0.26
5 37 0.54 0.2
5 38 0.52 0.16
5 39 0.58 0.16
5 40 0.52 0.3
5 41 0.36 0.1
5 42 0.62 0.25
5 43 0.59 0.27
5 44 0.64 0.3
5 45 0.38 0.14
5 46 0.6 0.3
5 47 0.46 0.2
5 48 0.56 0.28
5 49 0.34 0.25
6 7 0.36 0.24
6 8 0.59 0.21
6 9 0.42 0.24
6 10 0.67 0.16
6 11 0.77 0.3
6 12 0.63 0.3
6 13 0.62 0.2
6 14 0.74 0.25
6 15 0.41 0.23
6 16 0.72 0.18
6 17 0.56 0.34
6 18 0.52 0.19
6 19 0.62 0.31
6 20 0.55 0.26
6 21 0.46 0.22
6 22 0.72 0.19
6 23 0.62 0.28
6 24 0.56 0.31
6 25 0.58 0.16
6 26 0.66 0.26
6 27 0.41 0.06
6 28 0.66 0.32
6 29 0.76 0.23
6 30 0.38 0.28
6 31 0.62 0.14
6 32 0.51 0.14
6 33 0.83 0.26
6 34 0.45 0.21
6 35 0.64 0.13
6 36 0.54 0.31
6 37 0.72 0.22
6 38 0.68 0.18
6 39 0.57 0.22
6 40 0.44 0.23
6 41 0.49 0.25
6 42 0.66 0.2
6 43 0.34 0.12
6 44 0.57 0.15
6 45 0.56 0.29
6 46 0.3 0.18
6 47 0.3 0.23
6 48 0.52 0.19
6 49 0.6 0.27
7 8 0.67 0.33
7 9 0.66 0.29
7 10 0.74 0.23
7 11 0.61 0.33
7 12 0.28 0.26
7 13 0.67 0.27
7 14 0.7 0.32
7 15 0.64 0.22
7 16 0.52 0.3
7 17 0.46 0.33
7 18 0.48 0.22
7 19 0.56 0.17
7 20 0.36 0.2
7 21 0.63 0.3
7 22 0.82 0.27
7 23 0.56 0.28
7 24 0.2 0.18
7 25 0.6 0.22
7 26 0.5 0.3
7 27 0.36 0.18
7 28 0.63 0.3
7 29 0.61 0.24
7 30 0.66 0.29
7 31 0.68 0.31
7 32 0.63 0.26
7 33 0.62 0.33
7 34 0.52 0.23
7 35 0.78 0.2
7 36 0.72 0.29
7 37 0.68 0.32
7 38 0.52 0.24
7 39 0.42 0.11
7 40 0.54 0.23
7 41 0.66 0.29
7 42 0.48 0.19
7 43 0.59 0.24
7 44 0.36 0.31
7 45 0.28 0.22
7 46 0.6 0.25
7 47 0.14 0.07
7 48 0.39 0.25
7 49 0.62 0.28
8 9 0.62 0.14
8 10 0.54 0.24
8 11 0.7 0.33
8 12 0.76 0.33
8 13 0.72 0.25
8 14 0.76 0.27
8 15 0.48 0.17
8 16 0.42 0.03
8 17 0.75 0.22
8 18 0.44 0.29
8 19 0.78 0.35
8 20 0.71 0.26
8 21 0.62 0.26
8 22 0.44 0.28
8 23 0.27 0.11
8 24 0.63 0.3
8 25 0.47 0.26
8 26 0.53 0.34
8 27 0.4 0.15
8 28 0.72 0.39
8 29 0.38 0.22
8 30 0.68 0.18
8 31 0.44 0.25
8 32 0.67 0.2
8 33 0.61 0.29
8 34 0.45 0.29
8 35 0.62 0.26
8 36 0.62 0.21
8 37 0.66 0.26
8 38 0.57 0.28
8 39 0.5 0.35
8 40 0.72 0.28
8 41 0.38 0.24
8 42 0.47 0.24
8 43 0.5 0.18
8 44 0.66 0.16
8 45 0.47 0.18
8 46 0.56 0.21
8 47 0.6 0.32
8 48 0.77 0.25
8 49 0.39 0.19
9 10 0.78 0.18
9 11 0.44 0.3
9 12 0.5 0.24
9 13 0.64 0.18
9 14 0.58 0.31
9 15 0.48 0.29
9 16 0.7 0.17
9 17 0.52 0.22
9 18 0.46 0.28
9 19 0.58 0.28
9 20 0.58 0.16
9 21 0.54 0.3
9 22 0.36 0.22
9 23 0.46 0.25
9 24 0.54 0.28
9 25 0.4 0.24
9 26 0.51 0.2
9 27 0.3 0.23
9 28 0.68 0.36
9 29 0.62 0.2
9 30 0.6 0.32
9 31 0.5 0.31
9 32 0.78 0.22
9 33 0.56 0.34
9 34 0.52 0.3
9 35 0.68 0.21
9 36 0.72 0.3
9 37 0.7 0.24
9 38 0.5 0.26
9 39 0.72 0.25
9 40 0.54 0.36
9 41 0.58 0.24
9 42 0.26 0.24
9 43 0.64 0.24
9 44 0.87 0.3
9 45 0.74 0.26
9 46 0.72 0.26
9 47 0.54 0.22
9 48 0.78 0.32
9 49 0.68 0.2
10 11 0.9 0.26
10 12 0.62 0.14
10 13 0.46 0.28
10 14 0.74 0.15
10 15 0.83 0.23
10 16 0.74 0.24
10 17 0.56 0.33
10 18 0.62 0.23
10 19 0.6 0.26
10 20 0.68 0.2
10 21 0.68 0.29
10 22 0.66 0.22
10 23 0.43 0.29
10 24 0.61 0.32
10 25 0.62 0.15
10 26 0.47 0.1
10 27 0.76 0.12
10 28 0.4 0.26
10 29 0.62 0.24
10 30 0.32 0.25
10 31 0.55 0.13
10 32 0.77 0.04
10 33 0.73 0.16
10 34 0.81 0.23
10 35 0.7 0.03
10 36 0.55 0.26
10 37 0.62 0.26
10 38 0.72 0.22
10 39 0.32 0.12
10 40 0.57 0.21
10 41 0.86 0.28
10 42 0.52 0.23
10 43 0.6 0.06
10 44 0.67 0.15
10 45 0.62 0.21
10 46 0.59 0.08
10 47 0.6 0.16
10 48 0.72 0.25
10 49 0.66 0.29
11 12 0.67 0.26
11 13 0.78 0.32
11 14 0.43 0.16
11 15 0.67 0.26
11 16 0.36 0.3
11 17 0.57 0.47
11 18 0.76 0.34
11 19 0.62 0.34
11 20 0.7 0.22
11 21 0.48 0.27
11 22 0.63 0.28
11 23 0.58 0.32
11 24 0.49 0.34
11 25 0.64 0.19
11 26 0.44 0.3
11 27 0.62 0.26
11 28 0.54 0.24
11 29 0.51 0.26
11 30 0.86 0.38
11 31 0.38 0.16
11 32 0.42 0.22
11 33 0.82 0.34
11 34 0.48 0.32
11 35 0.64 0.29
11 36 0.66 0.28
11 37 0.76 0.36
11 38 0.65 0.28
11 39 0.74 0.3
11 40 0.7 0.2
11 41 0.32 0.26
11 42 0.42 0.36
11 43 0.52 0.2
11 44 0.71 0.32
11 45 0.6 0.34
11 46 0.74 0.26
11 47 0.47 0.26
11 48 0.75 0.24
11 49 0.47 0.34
12 13 0.5 0.24
12 14 0.57 0.23
12 15 0.48 0.2
12 16 0.62 0.36
12 17 0.7 0.32
12 18 0.76 0.2
12 19 0.54 0.28
12 20 0.08 0.08
12 21 0.63 0.22
12 22 0.58 0.28
12 23 0.56 0.26
12 24 0.48 0.2
12 25 0.7 0.26
12 26 0.42 0.04
12 27 0.44 0.26
12 28 0.58 0.15
12 29 0.44 0.12
12 30 0.58 0.22
12 31 0.64 0.27
12 32 0.6 0.18
12 33 0.44 0.26
12 34 0.56 0.17
12 35 0.68 0.17
12 36 0.44 0.12
12 37 0.53 0.21
12 38 0.8 0.27
12 39 0.3 0.17
12 40 0.6 0.14
12 41 0.39 0.23
12 42 0.36 0.2
12 43 0.68 0.2
12 44 0.64 0.26
12 45 0.49 0.23
12 46 0.57 0.22
12 47 0.42 0.21
12 48 0.45 0.18
12 49 0.64 0.34
13 14 0.7 0.26
13 15 0.58 0.29
13 16 0.67 0.28
13 17 0.54 0.37
13 18 0.53 0.27
13 19 0.64 0.11
13 20 0.56 0.25
13 21 0.4 0.2
13 22 0.75 0.27
13 23 0.71 0.27
13 24 0.47 0.22
13 25 0.43 0.2
13 26 0.69 0.25
13 27 0.57 0.24
13 28 0.59 0.28
13 29 0.84 0.29
13 30 0.46 0.19
13 31 0.62 0.24
13 32 0.46 0.32
13 33 0.61 0.3
13 34 0.68 0.12
13 35 0.65 0.25
13 36 0.48 0.12
13 37 0.62 0.29
13 38 0.41 0.22
13 39 0.46 0.16
13 40 0.64 0.18
13 41 0.64 0.06
13 42 0.62 0.29
13 43 0.55 0.3
13 44 0.32 0.27
13 45 0.42 0.24
13 46 0.48 0.26
13 47 0.74 0.2
13 48 0.4 0.14
13 49 0.59 0.31
14 15 0.86 0.1
14 16 0.79 0.28
14 17 0.58 0.31
14 18 0.81 0.27
14 19 0.65 0.22
14 20 0.49 0.15
14 21 0.57 0.29
14 22 0.66 0.32
14 23 0.79 0.16
14 24 0.8 0.27
14 25 0.5 0.16
14 26 0.58 0.25
14 27 0.61 0.19
14 28 0.49 0.31
14 29 0.49 0.19
14 30 0.66 0.26
14 31 0.62 0.2
14 32 0.51 0.11
14 33 0.85 0.28
14 34 0.7 0.3
14 35 0.54 0.18
14 36 0.88 0.32
14 37 0.54 0.2
14 38 0.46 0.22
14 39 0.54 0.24
14 40 0.75 0.24
14 41 0.74 0.3
14 42 0.6 0.29
14 43 0.62 0.13
14 44 0.52 0.3
14 45 0.5 0.18
14 46 0.8 0.23
14 47 0.57 0.28
14 48 0.64 0.28
14 49 0.62 0.31
15 16 0.46 0.18
15 17 0.54 0.21
15 18 0.57 0.2
15 19 0.51 0.18
15 20 0.56 0.23
15 21 0.56 0.23
15 22 0.5 0.24
15 23 0.6 0.06
15 24 0.5 0.27
15 25 0.38 0.1
15 26 0.8 0.24
15 27 0.67 0.26
15 28 0.71 0.26
15 29 0.76 0.19
15 30 0.59 0.27
15 31 0.54 0.26
15 32 0.73 0.21
15 33 0.42 0.33
15 34 0.46 0.2
15 35 0.66 0.2
15 36 0.56 0.22
15 37 0.54 0.1
15 38 0.46 0.17
15 39 0.66 0.26
15 40 0.66 0.14
15 41 0.42 0.26
15 42 0.74 0.19
15 43 0.75 0.23
15 44 0.54 0.26
15 45 0.4 0.08
15 46 0.68 0.25
15 47 0.66 0.22
15 48 0.67 0.18
15 49 0.42 0.24
16 17 0.7 0.19
16 18 0.74 0.3
16 19 0.46 0.36
16 20 0.54 0.29
16 21 0.62 0.29
16 22 0.82 0.25
16 23 0.5 0.12
16 24 0.72 0.33
16 25 0.6 0.23
16 26 0.68 0.34
16 27 0.52 0.12
16 28 0.48 0.36
16 29 0.69 0.25
16 30 0.76 0.21
16 31 0.38 0.25
16 32 0.63 0.2
16 33 0.75 0.26
16 34 0.44 0.29
16 35 0.76 0.23
16 36 0.62 0.24
16 37 0.64 0.27
16 38 0.72 0.29
16 39 0.68 0.32
16 40 0.5 0.31
16 41 0.57 0.27
16 42 0.44 0.25
16 43 0.46 0.18
16 44 0.35 0.19
16 45 0.7 0.21
16 46 0.42 0.18
16 47 0.65 0.33
16 48 0.9 0.28
16 49 0.55 0.22
17 18 0.56 0.39
17 19 0.74 0.34
17 20 0.78 0.27
17 21 0.54 0.25
17 22 0.74 0.28
17 23 0.74 0.27
17 24 0.66 0.15
17 25 0.4 0.31
17 26 0.62 0.28
17 27 0.5 0.28
17 28 0.55 0.38
17 29 0.51 0.23
17 30 0.83 0.37
17 31 0.7 0.41
17 32 0.56 0.34
17 33 0.78 0.36
17 34 0.73 0.29
17 35 0.68 0.3
17 36 0.66 0.3
17 37 0.38 0.12
17 38 0.54 0.34
17 39 0.6 0.32
17 40 0.7 0.35
17 41 0.5 0.35
17 42 0.71 0.27
17 43 0.57 0.34
17 44 0.63 0.38
17 45 0.72 0.29
17 46 0.84 0.35
17 47 0.32 0.28
17 48 0.74 0.38
17 49 0.36 0.27
18 19 0.86 0.25
18 20 0.74 0.12
18 21 0.68 0.26
18 22 0.69 0.35
18 23 0.6 0.18
18 24 0.68 0.24
18 25 0.69 0.3
18 26 0.64 0.24
18 27 0.56 0.25
18 28 0.71 0.26
18 29 0.67 0.16
18 30 0.75 0.31
18 31 0.83 0.33
18 32 0.72 0.27
18 33 0.42 0.31
18 34 0.49 0.31
18 35 0.56 0.2
18 36 0.72 0.32
18 37 0.6 0.3
18 38 0.35 0.25
18 39 0.8 0.11
18 40 0.79 0.29
18 41 0.44 0.32
18 42 0.57 0.23
18 43 0.8 0.29
18 44 0.72 0.32
18 45 0.6 0.27
18 46 0.72 0.25
18 47 0.53 0.15
18 48 0.62 0.32
18 49 0.53 0.28
19 20 0.51 0.23
19 21 0.62 0.2
19 22 0.54 0.3
19 23 0.66 0.24
19 24 0.62 0.32
19 25 0.58 0.25
19 26 0.52 0.29
19 27 0.68 0.26
19 28 0.2 0.17
19 29 0.77 0.27
19 30 0.62 0.3
19 31 0.34 0.23
19 32 0.54 0.22
19 33 0.47 0.34
19 34 0.73 0.16
19 35 0.3 0.23
19 36 0.63 0.23
19 37 0.38 0.22
19 38 0.62 0.26
19 39 0.6 0.14
19 40 0.18 0.14
19 41 0.56 0.17
19 42 0.46 0.2
19 43 0.5 0.2
19 44 0.47 0.26
19 45 0.78 0.26
19 46 0.33 0.26
19 47 0.42 0.1
19 48 0.62 0.18
19 49 0.51 0.31
20 21 0.71 0.14
20 22 0.5 0.27
20 23 0.54 0.23
20 24 0.52 0.12
20 25 0.71 0.18
20 26 0.48 0.12
20 27 0.42 0.24
20 28 0.66 0.23
20 29 0.52 0.04
20 30 0.5 0.24
20 31 0.56 0.23
20 32 0.52 0.16
20 33 0.36 0.19
20 34 0.64 0.25
20 35 0.6 0.18
20 36 0.52 0.2
20 37 0.61 0.27
20 38 0.74 0.2
20 39 0.38 0.09
20 40 0.52 0.22
20 41 0.47 0.28
20 42 0.34 0.14
20 43 0.65 0.18
20 44 0.57 0.3
20 45 0.41 0.15
20 46 0.65 0.23
20 47 0.5 0.13
20 48 0.52 0.26
20 49 0.56 0.26
21 22 0.84 0.25
21 23 0.44 0.28
21 24 0.56 0.18
21 25 0.78 0.16
21 26 0.46 0.26
21 27 0.5 0.28
21 28 0.81 0.32
21 29 0.6 0.1
21 30 0.5 0.27
21 31 0.7 0.29
21 32 0.43 0.3
21 33 0.73 0.33
21 34 0.66 0.13
21 35 0.5 0.28
21 36 0.7 0.3
21 37 0.52 0.13
21 38 0.38 0.18
21 39 0.36 0.23
21 40 0.62 0.34
21 41 0.24 0.14
21 42 0.39 0.28
21 43 0.5 0.32
21 44 0.61 0.36
21 45 0.56 0.21
21 46 0.48 0.33
21 47 0.64 0.23
21 48 0.52 0.32
21 49 0.56 0.27
22 23 0.62 0.3
22 24 0.68 0.32
22 25 0.71 0.17
22 26 0.74 0.28
22 27 0.66 0.13
22 28 0.34 0.23
22 29 0.8 0.24
22 30 0.34 0.23
22 31 0.74 0.26
22 32 0.73 0.21
22 33 0.86 0.22
22 34 0.44 0.15
22 35 0.78 0.19
22 36 0.54 0.16
22 37 0.61 0.22
22 38 0.54 0.14
22 39 0.74 0.24
22 40 0.36 0.32
22 41 0.74 0.21
22 42 0.62 0.32
22 43 0.66 0.19
22 44 0.56 0.24
22 45 0.7 0.26
22 46 0.55 0.14
22 47 0.87 0.2
22 48 0.58 0.32
22 49 0.48 0.23
23 24 0.36 0.22
23 25 0.53 0.16
23 26 0.8 0.3
23 27 0.67 0.24
23 28 0.58 0.32
23 29 0.65 0.25
23 30 0.6 0.23
23 31 0.42 0.2
23 32 0.56 0.27
23 33 0.7 0.38
23 34 0.54 0.26
23 35 0.5 0.26
23 36 0.7 0.28
23 37 0.76 0.15
23 38 0.44 0.23
23 39 0.74 0.29
23 40 0.48 0.2
23 41 0.56 0.24
23 42 0.2 0.13
23 43 0.62 0.27
23 44 0.81 0.27
23 45 0.74 0.14
23 46 0.56 0.3
23 47 0.62 0.25
23 48 0.72 0.24
23 49 0.62 0.3
24 25 0.62 0.23
24 26 0.7 0.24
24 27 0.56 0.3
24 28 0.6 0.23
24 29 0.41 0.08
24 30 0.62 0.22
24 31 0.48 0.27
24 32 0.68 0.28
24 33 0.62 0.31
24 34 0.49 0.31
24 35 0.58 0.3
24 36 0.75 0.32
24 37 0.83 0.27
24 38 0.59 0.25
24 39 0.44 0.21
24 40 0.56 0.21
24 41 0.73 0.28
24 42 0.28 0.12
24 43 0.68 0.3
24 44 0.54 0.24
24 45 0.48 0.19
24 46 0.61 0.28
24 47 0.34 0.22
24 48 0.59 0.25
24 49 0.72 0.34
25 26 0.54 0.24
25 27 0.3 0.16
25 28 0.42 0.24
25 29 0.58 0.15
25 30 0.65 0.2
25 31 0.7 0.22
25 32 0.61 0.19
25 33 0.6 0.25
25 34 0.4 0.2
25 35 0.28 0.12
25 36 0.52 0.32
25 37 0.62 0.2
25 38 0.48 0.1
25 39 0.65 0.19
25 40 0.46 0.24
25 41 0.8 0.26
25 42 0.59 0.27
25 43 0.44 0.21
25 44 0.67 0.24
25 45 0.51 0.18
25 46 0.67 0.17
25 47 0.72 0.15
25 48 0.83 0.2
25 49 0.66 0.19
26 27 0.48 0.22
26 28 0.59 0.16
26 29 0.71 0.16
26 30 0.42 0.26
26 31 0.73 0.23
26 32 0.63 0.14
26 33 0.48 0.22
26 34 0.34 0.13
26 35 0.75 0.13
26 36 0.47 0.16
26 37 0.36 0.25
26 38 0.52 0.23
26 39 0.48 0.21
26 40 0.49 0.18
26 41 0.67 0.19
26 42 0.64 0.24
26 43 0.55 0.16
26 44 0.37 0.25
26 45 0.42 0.25
26 46 0.36 0.18
26 47 0.36 0.25
26 48 0.76 0.22
26 49 0.67 0.32
27 28 0.66 0.36
27 29 0.44 0.28
27 30 0.44 0.26
27 31 0.6 0.13
27 32 0.51 0.08
27 33 0.78 0.24
27 34 0.52 0.26
27 35 0.56 0.15
27 36 0.42 0.29
27 37 0.56 0.16
27 38 0.78 0.24
27 39 0.68 0.24
27 40 0.5 0.25
27 41 0.5 0.3
27 42 0.48 0.26
27 43 0.34 0.06
27 44 0.57 0.21
27 45 0.64 0.28
27 46 0.71 0.16
27 47 0.5 0.21
27 48 0.64 0.25
27 49 0.79 0.33
28 29 0.72 0.27
28 30 0.68 0.24
28 31 0.54 0.26
28 32 0.49 0.3
28 33 0.67 0.38
28 34 0.53 0.24
28 35 0.5 0.29
28 36 0.6 0.27
28 37 0.58 0.36
28 38 0.62 0.14
28 39 0.72 0.31
28 40 0.38 0.28
28 41 0.61 0.24
28 42 0.42 0.28
28 43 0.32 0.3
28 44 0.27 0.26
28 45 0.69 0.34
28 46 0.46 0.3
28 47 0.62 0.27
28 48 0.57 0.32
28 49 0.57 0.23
29 30 0.85 0.27
29 31 0.7 0.19
29 32 0.59 0.2
29 33 0.74 0.23
29 34 0.61 0.23
29 35 0.72 0.22
29 36 0.79 0.24
29 37 0.42 0.23
29 38 0.78 0.17
29 39 0.74 0.13
29 40 0.7 0.24
29 41 0.62 0.24
29 42 0.54 0.18
29 43 0.42 0.22
29 44 0.65 0.32
29 45 0.75 0.11
29 46 0.51 0.27
29 47 0.75 0.17
29 48 0.54 0.22
29 49 0.68 0.26
30 31 0.76 0.22
30 32 0.54 0.28
30 33 0.8 0.35
30 34 0.76 0.19
30 35 0.44 0.22
30 36 0.56 0.31
30 37 0.78 0.26
30 38 0.4 0.1
30 39 0.58 0.2
30 40 0.44 0.31
30 41 0.58 0.13
30 42 0.58 0.1
30 43 0.58 0.29
30 44 0.76 0.32
30 45 0.54 0.24
30 46 0.34 0.27
30 47 0.68 0.22
30 48 0.59 0.31
30 49 0.47 0.18
31 32 0.68 0.09
31 33 0.6 0.25
31 34 0.64 0.22
31 35 0.64 0.16
31 36 0.29 0.18
31 37 0.54 0.29
31 38 0.75 0.12
31 39 0.66 0.25
31 40 0.44 0.18
31 41 0.7 0.28
31 42 0.62 0.31
31 43 0.67 0.07
31 44 0.73 0.24
31 45 0.5 0.3
31 46 0.42 0.17
31 47 0.71 0.29
31 48 0.69 0.22
31 49 0.57 0.21
32 33 0.4 0.2
32 34 0.29 0.26
32 35 0.47 0.07
32 36 0.55 0.25
32 37 0.46 0.22
32 38 0.5 0.18
32 39 0.5 0.16
32 40 0.56 0.17
32 41 0.57 0.32
32 42 0.63 0.26
32 43 0.17 0.02
32 44 0.4 0.19
32 45 0.55 0.25
32 46 0.32 0.12
32 47 0.76 0.2
32 48 0.77 0.21
32 49 0.56 0.27
33 34 0.69 0.34
33 35 0.54 0.13
33 36 0.76 0.32
33 37 0.4 0.24
33 38 0.77 0.28
33 39 0.66 0.22
33 40 0.64 0.28
33 41 0.54 0.28
33 42 0.5 0.33
33 43 0.52 0.18
33 44 0.7 0.25
33 45 0.64 0.34
33 46 0.56 0.08
33 47 0.74 0.26
33 48 0.49 0.32
33 49 0.68 0.28
34 35 0.68 0.26
34 36 0.68 0.24
34 37 0.59 0.17
34 38 0.62 0.1
34 39 0.52 0.2
34 40 0.58 0.24
34 41 0.78 0.06
34 42 0.34 0.19
34 43 0.46 0.28
34 44 0.67 0.33
34 45 0.26 0.12
34 46 0.61 0.26
34 47 0.47 0.16
34 48 0.82 0.24
34 49 0.6 0.19
35 36 0.52 0.29
35 37 0.68 0.24
35 38 0.72 0.22
35 39 0.6 0.09
35 40 0.48 0.24
35 41 0.74 0.25
35 42 0.43 0.2
35 43 0.3 0.09
35 44 0.44 0.12
35 45 0.72 0.24
35 46 0.39 0.05
35 47 0.66 0.13
35 48 0.55 0.28
35 49 0.54 0.26
36 37 0.68 0.32
36 38 0.84 0.3
36 39 0.4 0.26
36 40 0.73 0.16
36 41 0.52 0.18
36 42 0.5 0.32
36 43 0.38 0.25
36 44 0.61 0.28
36 45 0.48 0.24
36 46 0.58 0.24
36 47 0.68 0.22
36 48 0.88 0.2
36 49 0.73 0.28
37 38 0.74 0.27
37 39 0.46 0.3
37 40 0.56 0.24
37 41 0.76 0.23
37 42 0.56 0.16
37 43 0.61 0.22
37 44 0.38 0.35
37 45 0.56 0.18
37 46 0.71 0.29
37 47 0.7 0.26
37 48 0.48 0.26
37 49 0.68 0.34
38 39 0.6 0.21
38 40 0.44 0.3
38 41 0.44 0.16
38 42 0.54 0.2
38 43 0.59 0.19
38 44 0.37 0.23
38 45 0.48 0.22
38 46 0.72 0.22
38 47 0.46 0.17
38 48 0.56 0.3
38 49 0.18 0.09
39 40 0.48 0.2
39 41 0.54 0.21
39 42 0.66 0.16
39 43 0.56 0.18
39 44 0.46 0.21
39 45 0.54 0.24
39 46 0.27 0.14
39 47 0.28 0.04
39 48 0.48 0.22
39 49 0.42 0.17
40 41 0.38 0.22
40 42 0.28 0.21
40 43 0.48 0.19
40 44 0.59 0.12
40 45 0.6 0.22
40 46 0.51 0.2
40 47 0.52 0.16
40 48 0.44 0.04
40 49 0.36 0.26
41 42 0.63 0.23
41 43 0.5 0.3
41 44 0.7 0.33
41 45 0.61 0.18
41 46 0.72 0.2
41 47 0.52 0.22
41 48 0.43 0.18
41 49 0.62 0.25
42 43 0.56 0.24
42 44 0.64 0.32
42 45 0.6 0.14
42 46 0.47 0.25
42 47 0.48 0.12
42 48 0.52 0.25
42 49 0.55 0.28
43 44 0.23 0.21
43 45 0.42 0.27
43 46 0.49 0.1
43 47 0.64 0.22
43 48 0.6 0.23
43 49 0.53 0.28
44 45 0.64 0.3
44 46 0.72 0.17
44 47 0.5 0.25
44 48 0.68 0.16
44 49 0.3 0.14
45 46 0.64 0.29
45 47 0.42 0.26
45 48 0.58 0.26
45 49 0.66 0.31
46 47 0.55 0.18
46 48 0.68 0.24
46 49 0.54 0.31
47 48 0.53 0.18
47 49 0.48 0.21
48 49 0.38 0.25
